; benchmark generated from python API
(set-info :status unknown)
(declare-fun x_epoch () Int)
(declare-fun y_epoch () Int)
(declare-fun x_plus_epoch () Int)
(declare-fun x_plus_month () Int)
(declare-fun x_plus_year () Int)
(declare-fun x_plus_day () Int)
(declare-fun x_plus_1_epoch () Int)
(assert
 (>= x_epoch (- 36584)))
(assert
 (<= x_epoch 36829))
(assert
 (>= y_epoch (- 36584)))
(assert
 (<= y_epoch 36829))
(assert
 (>= x_epoch 7244))
(assert
 (<= x_epoch 7276))
(assert
 (>= x_plus_epoch (- 36584)))
(assert
 (<= x_plus_epoch 36829))
(assert
 (let (($x2487 (= x_plus_month 11)))
 (let (($x204 (= x_plus_month 9)))
 (let (($x780 (= x_plus_month 6)))
 (let (($x2410 (= x_plus_month 4)))
 (let ((?x542 (ite (or $x2410 $x780 $x204 $x2487) 30 31)))
 (let (($x818 (= (mod x_plus_year 400) 0)))
 (let (($x156 (= (mod x_plus_year 4) 0)))
 (let (($x598 (or (and $x156 (and (distinct (mod x_plus_year 100) 0) true)) $x818)))
 (let (($x814 (= x_plus_month 2)))
 (let (($x2453 (>= x_plus_day 1)))
 (let (($x1195 (<= x_plus_month 12)))
 (let (($x153 (>= x_plus_month 1)))
 (let (($x3218 (<= x_plus_year 2100)))
 (let (($x2882 (>= x_plus_year 1900)))
 (and $x2882 $x3218 $x153 $x1195 $x2453 (<= x_plus_day (ite $x814 (ite $x598 29 28) ?x542))))))))))))))))))
(assert
 (let (($x29 (or (and (= (mod 2000 4) 0) (and (distinct (mod 2000 100) 0) true)) (= (mod 2000 400) 0))))
 (let ((?x36 (ite (= 3 2) (ite $x29 31 31) (ite (= 3 1) (ite $x29 0 0) 0))))
 (let ((?x40 (ite $x29 60 59)))
 (let ((?x41 (ite (= 3 3) ?x40 ?x36)))
 (let ((?x46 (ite (= 3 4) (ite $x29 91 90) ?x41)))
 (let ((?x52 (ite (= 3 5) (ite $x29 121 120) ?x46)))
 (let ((?x58 (ite (= 3 6) (ite $x29 152 151) ?x52)))
 (let ((?x64 (ite (= 3 7) (ite $x29 182 181) ?x58)))
 (let ((?x70 (ite (= 3 8) (ite $x29 213 212) ?x64)))
 (let ((?x76 (ite (= 3 9) (ite $x29 244 243) ?x70)))
 (let ((?x82 (ite (= 3 10) (ite $x29 274 273) ?x76)))
 (let ((?x88 (ite (= 3 11) (ite $x29 305 304) ?x82)))
 (let ((?x16 (- (+ (* 365 (- 2000 1)) (div (- 2000 1) 4)) (div (- 2000 1) 100))))
 (let ((?x95 (+ (+ ?x16 (div (- 2000 1) 400)) (ite (= 3 12) (ite $x29 335 334) ?x88))))
 (let ((?x97 (+ ?x95 (- 1 1))))
 (let (($x818 (= (mod x_plus_year 400) 0)))
 (let (($x156 (= (mod x_plus_year 4) 0)))
 (let (($x598 (or (and $x156 (and (distinct (mod x_plus_year 100) 0) true)) $x818)))
 (let (($x3199 (= 2 x_plus_month)))
 (let ((?x628 (ite $x3199 (ite $x598 31 31) (ite (= 1 x_plus_month) (ite $x598 0 0) 0))))
 (let (($x219 (= 3 x_plus_month)))
 (let (($x192 (= 4 x_plus_month)))
 (let ((?x2397 (ite $x192 (ite $x598 91 90) (ite $x219 (ite $x598 60 59) ?x628))))
 (let (($x433 (= 5 x_plus_month)))
 (let (($x3280 (= 6 x_plus_month)))
 (let ((?x804 (ite $x3280 (ite $x598 152 151) (ite $x433 (ite $x598 121 120) ?x2397))))
 (let (($x508 (= 7 x_plus_month)))
 (let (($x813 (= 8 x_plus_month)))
 (let ((?x567 (ite $x813 (ite $x598 213 212) (ite $x508 (ite $x598 182 181) ?x804))))
 (let (($x100 (= 9 x_plus_month)))
 (let (($x776 (= 10 x_plus_month)))
 (let ((?x683 (ite $x776 (ite $x598 274 273) (ite $x100 (ite $x598 244 243) ?x567))))
 (let (($x345 (= 11 x_plus_month)))
 (let (($x376 (= 12 x_plus_month)))
 (let ((?x2280 (ite $x376 (ite $x598 335 334) (ite $x345 (ite $x598 305 304) ?x683))))
 (let ((?x798 (+ (* 365 (- x_plus_year 1)) (div (- x_plus_year 1) 4))))
 (let ((?x2535 (+ (- ?x798 (div (- x_plus_year 1) 100)) (div (- x_plus_year 1) 400))))
 (= x_plus_epoch (- (+ (+ ?x2535 ?x2280) (- x_plus_day 1)) ?x97))))))))))))))))))))))))))))))))))))))))
(assert
 (let (($x29 (or (and (= (mod 2000 4) 0) (and (distinct (mod 2000 100) 0) true)) (= (mod 2000 400) 0))))
 (let ((?x36 (ite (= 3 2) (ite $x29 31 31) (ite (= 3 1) (ite $x29 0 0) 0))))
 (let ((?x40 (ite $x29 60 59)))
 (let ((?x41 (ite (= 3 3) ?x40 ?x36)))
 (let ((?x46 (ite (= 3 4) (ite $x29 91 90) ?x41)))
 (let ((?x52 (ite (= 3 5) (ite $x29 121 120) ?x46)))
 (let ((?x58 (ite (= 3 6) (ite $x29 152 151) ?x52)))
 (let ((?x64 (ite (= 3 7) (ite $x29 182 181) ?x58)))
 (let ((?x70 (ite (= 3 8) (ite $x29 213 212) ?x64)))
 (let ((?x76 (ite (= 3 9) (ite $x29 244 243) ?x70)))
 (let ((?x82 (ite (= 3 10) (ite $x29 274 273) ?x76)))
 (let ((?x88 (ite (= 3 11) (ite $x29 305 304) ?x82)))
 (let ((?x16 (- (+ (* 365 (- 2000 1)) (div (- 2000 1) 4)) (div (- 2000 1) 100))))
 (let ((?x95 (+ (+ ?x16 (div (- 2000 1) 400)) (ite (= 3 12) (ite $x29 335 334) ?x88))))
 (let ((?x97 (+ ?x95 (- 1 1))))
 (let ((?x357 (+ x_epoch ?x97)))
 (let ((?x1747 (mod ?x357 146097)))
 (let ((?x555 (div ?x1747 36524)))
 (let ((?x3001 (ite (<= 4 ?x555) 3 ?x555)))
 (let ((?x2745 (- ?x1747 (* ?x3001 36524))))
 (let ((?x328 (mod ?x2745 1461)))
 (let ((?x606 (div ?x328 365)))
 (let ((?x2600 (ite (<= 4 ?x606) 3 ?x606)))
 (let ((?x616 (+ (+ (* (div ?x357 146097) 400) (* ?x3001 100)) (* (div ?x2745 1461) 4))))
 (let ((?x498 (+ (+ ?x616 ?x2600) 1)))
 (let (($x2468 (or (and (= (mod ?x498 4) 0) (and (distinct (mod ?x498 100) 0) true)) (= (mod ?x498 400) 0))))
 (let ((?x178 (- ?x328 (* ?x2600 365))))
 (let ((?x2937 (ite $x2468 31 31)))
 (let (($x138 (>= ?x178 ?x2937)))
 (let ((?x506 (ite $x138 (+ (- ?x178 ?x2937) 1) (+ (- ?x178 (ite $x2468 0 0)) 1))))
 (let ((?x649 (ite $x2468 60 59)))
 (let (($x2894 (>= ?x178 ?x649)))
 (let ((?x799 (ite $x2468 91 90)))
 (let (($x488 (>= ?x178 ?x799)))
 (let ((?x466 (ite $x488 (+ (- ?x178 ?x799) 1) (ite $x2894 (+ (- ?x178 ?x649) 1) ?x506))))
 (let ((?x563 (ite $x2468 121 120)))
 (let (($x143 (>= ?x178 ?x563)))
 (let ((?x2146 (ite $x2468 152 151)))
 (let (($x363 (>= ?x178 ?x2146)))
 (let ((?x292 (ite $x363 (+ (- ?x178 ?x2146) 1) (ite $x143 (+ (- ?x178 ?x563) 1) ?x466))))
 (let ((?x360 (ite $x2468 182 181)))
 (let (($x351 (>= ?x178 ?x360)))
 (let ((?x240 (ite $x2468 213 212)))
 (let (($x439 (>= ?x178 ?x240)))
 (let ((?x538 (ite $x439 (+ (- ?x178 ?x240) 1) (ite $x351 (+ (- ?x178 ?x360) 1) ?x292))))
 (let ((?x3103 (ite $x2468 244 243)))
 (let (($x485 (>= ?x178 ?x3103)))
 (let ((?x2444 (ite $x2468 274 273)))
 (let (($x424 (>= ?x178 ?x2444)))
 (let ((?x499 (ite $x424 (+ (- ?x178 ?x2444) 1) (ite $x485 (+ (- ?x178 ?x3103) 1) ?x538))))
 (let ((?x181 (ite $x2468 305 304)))
 (let (($x753 (>= ?x178 ?x181)))
 (let ((?x830 (ite $x2468 335 334)))
 (let (($x402 (>= ?x178 ?x830)))
 (let ((?x2064 (ite $x402 (+ (- ?x178 ?x830) 1) (ite $x753 (+ (- ?x178 ?x181) 1) ?x499))))
 (let ((?x3102 (+ (* 1 12) 0)))
 (let ((?x790 (ite $x143 5 (ite $x488 4 (ite $x2894 3 (ite $x138 2 1))))))
 (let ((?x714 (ite $x485 9 (ite $x439 8 (ite $x351 7 (ite $x363 6 ?x790))))))
 (let ((?x728 (ite $x402 12 (ite $x753 11 (ite $x424 10 ?x714)))))
 (let ((?x1148 (+ ?x728 ?x3102)))
 (let ((?x1678 (- ?x1148 1)))
 (let ((?x2860 (+ (mod ?x1678 12) 1)))
 (let ((?x3432 (ite (or (= ?x2860 4) (= ?x2860 6) (= ?x2860 9) (= ?x2860 11)) 30 31)))
 (let (($x2403 (and (= (mod (+ ?x498 (+ 0 (div ?x1678 12))) 4) 0) (and (distinct (mod (+ ?x498 (+ 0 (div ?x1678 12))) 100) 0) true))))
 (let (($x3365 (or $x2403 (= (mod (+ ?x498 (+ 0 (div ?x1678 12))) 400) 0))))
 (let ((?x1921 (ite (= ?x2860 2) (ite $x3365 29 28) ?x3432)))
 (let (($x1350 (> 1 ?x2064)))
 (let ((?x2625 (ite $x1350 1 (ite (> ?x2064 ?x1921) ?x1921 ?x2064))))
 (let ((?x3295 (ite (> 1 ?x2625) 1 (ite (> ?x2625 ?x1921) ?x1921 ?x2625))))
 (let ((?x1473 (ite (= 2 ?x2860) (ite $x3365 31 31) (ite (= 1 ?x2860) (ite $x3365 0 0) 0))))
 (let ((?x3157 (ite (= 4 ?x2860) (ite $x3365 91 90) (ite (= 3 ?x2860) (ite $x3365 60 59) ?x1473))))
 (let ((?x1415 (ite (= 6 ?x2860) (ite $x3365 152 151) (ite (= 5 ?x2860) (ite $x3365 121 120) ?x3157))))
 (let ((?x1418 (ite (= 8 ?x2860) (ite $x3365 213 212) (ite (= 7 ?x2860) (ite $x3365 182 181) ?x1415))))
 (let ((?x2641 (ite (= 10 ?x2860) (ite $x3365 274 273) (ite (= 9 ?x2860) (ite $x3365 244 243) ?x1418))))
 (let ((?x2427 (ite (= 12 ?x2860) (ite $x3365 335 334) (ite (= 11 ?x2860) (ite $x3365 305 304) ?x2641))))
 (let ((?x2312 (+ (* 365 (- (+ ?x498 (+ 0 (div ?x1678 12))) 1)) (div (- (+ ?x498 (+ 0 (div ?x1678 12))) 1) 4))))
 (let ((?x2684 (+ (- ?x2312 (div (- (+ ?x498 (+ 0 (div ?x1678 12))) 1) 100)) (div (- (+ ?x498 (+ 0 (div ?x1678 12))) 1) 400))))
 (let ((?x1940 (+ (+ (- (+ (+ ?x2684 ?x2427) (- ?x3295 1)) ?x97) 0) ?x97)))
 (let ((?x1465 (mod ?x1940 146097)))
 (let ((?x2827 (div ?x1465 36524)))
 (let ((?x3540 (ite (<= 4 ?x2827) 3 ?x2827)))
 (let ((?x529 (- ?x1465 (* ?x3540 36524))))
 (let ((?x3045 (mod ?x529 1461)))
 (let ((?x917 (div ?x3045 365)))
 (let ((?x2819 (ite (<= 4 ?x917) 3 ?x917)))
 (let ((?x2519 (+ (+ (* (div ?x1940 146097) 400) (* ?x3540 100)) (* (div ?x529 1461) 4))))
 (let ((?x2020 (+ (+ ?x2519 ?x2819) 1)))
 (let ((?x268 (+ 0 (div ?x1678 12))))
 (let ((?x2741 (+ ?x498 ?x268)))
 (let (($x516 (= 0 0)))
 (let ((?x2259 (ite $x516 ?x2741 ?x2020)))
 (= x_plus_year ?x2259)))))))))))))))))))))))))))))))))))))))))))))))))))))))))))))))))))))))))))))))))))))))))))))
(assert
 (let (($x29 (or (and (= (mod 2000 4) 0) (and (distinct (mod 2000 100) 0) true)) (= (mod 2000 400) 0))))
 (let ((?x36 (ite (= 3 2) (ite $x29 31 31) (ite (= 3 1) (ite $x29 0 0) 0))))
 (let ((?x40 (ite $x29 60 59)))
 (let ((?x41 (ite (= 3 3) ?x40 ?x36)))
 (let ((?x46 (ite (= 3 4) (ite $x29 91 90) ?x41)))
 (let ((?x52 (ite (= 3 5) (ite $x29 121 120) ?x46)))
 (let ((?x58 (ite (= 3 6) (ite $x29 152 151) ?x52)))
 (let ((?x64 (ite (= 3 7) (ite $x29 182 181) ?x58)))
 (let ((?x70 (ite (= 3 8) (ite $x29 213 212) ?x64)))
 (let ((?x76 (ite (= 3 9) (ite $x29 244 243) ?x70)))
 (let ((?x82 (ite (= 3 10) (ite $x29 274 273) ?x76)))
 (let ((?x88 (ite (= 3 11) (ite $x29 305 304) ?x82)))
 (let ((?x16 (- (+ (* 365 (- 2000 1)) (div (- 2000 1) 4)) (div (- 2000 1) 100))))
 (let ((?x95 (+ (+ ?x16 (div (- 2000 1) 400)) (ite (= 3 12) (ite $x29 335 334) ?x88))))
 (let ((?x97 (+ ?x95 (- 1 1))))
 (let ((?x357 (+ x_epoch ?x97)))
 (let ((?x1747 (mod ?x357 146097)))
 (let ((?x555 (div ?x1747 36524)))
 (let ((?x3001 (ite (<= 4 ?x555) 3 ?x555)))
 (let ((?x2745 (- ?x1747 (* ?x3001 36524))))
 (let ((?x328 (mod ?x2745 1461)))
 (let ((?x606 (div ?x328 365)))
 (let ((?x2600 (ite (<= 4 ?x606) 3 ?x606)))
 (let ((?x616 (+ (+ (* (div ?x357 146097) 400) (* ?x3001 100)) (* (div ?x2745 1461) 4))))
 (let ((?x498 (+ (+ ?x616 ?x2600) 1)))
 (let (($x2468 (or (and (= (mod ?x498 4) 0) (and (distinct (mod ?x498 100) 0) true)) (= (mod ?x498 400) 0))))
 (let ((?x178 (- ?x328 (* ?x2600 365))))
 (let ((?x2937 (ite $x2468 31 31)))
 (let (($x138 (>= ?x178 ?x2937)))
 (let ((?x506 (ite $x138 (+ (- ?x178 ?x2937) 1) (+ (- ?x178 (ite $x2468 0 0)) 1))))
 (let ((?x649 (ite $x2468 60 59)))
 (let (($x2894 (>= ?x178 ?x649)))
 (let ((?x799 (ite $x2468 91 90)))
 (let (($x488 (>= ?x178 ?x799)))
 (let ((?x466 (ite $x488 (+ (- ?x178 ?x799) 1) (ite $x2894 (+ (- ?x178 ?x649) 1) ?x506))))
 (let ((?x563 (ite $x2468 121 120)))
 (let (($x143 (>= ?x178 ?x563)))
 (let ((?x2146 (ite $x2468 152 151)))
 (let (($x363 (>= ?x178 ?x2146)))
 (let ((?x292 (ite $x363 (+ (- ?x178 ?x2146) 1) (ite $x143 (+ (- ?x178 ?x563) 1) ?x466))))
 (let ((?x360 (ite $x2468 182 181)))
 (let (($x351 (>= ?x178 ?x360)))
 (let ((?x240 (ite $x2468 213 212)))
 (let (($x439 (>= ?x178 ?x240)))
 (let ((?x538 (ite $x439 (+ (- ?x178 ?x240) 1) (ite $x351 (+ (- ?x178 ?x360) 1) ?x292))))
 (let ((?x3103 (ite $x2468 244 243)))
 (let (($x485 (>= ?x178 ?x3103)))
 (let ((?x2444 (ite $x2468 274 273)))
 (let (($x424 (>= ?x178 ?x2444)))
 (let ((?x499 (ite $x424 (+ (- ?x178 ?x2444) 1) (ite $x485 (+ (- ?x178 ?x3103) 1) ?x538))))
 (let ((?x181 (ite $x2468 305 304)))
 (let (($x753 (>= ?x178 ?x181)))
 (let ((?x830 (ite $x2468 335 334)))
 (let (($x402 (>= ?x178 ?x830)))
 (let ((?x2064 (ite $x402 (+ (- ?x178 ?x830) 1) (ite $x753 (+ (- ?x178 ?x181) 1) ?x499))))
 (let ((?x3102 (+ (* 1 12) 0)))
 (let ((?x790 (ite $x143 5 (ite $x488 4 (ite $x2894 3 (ite $x138 2 1))))))
 (let ((?x714 (ite $x485 9 (ite $x439 8 (ite $x351 7 (ite $x363 6 ?x790))))))
 (let ((?x728 (ite $x402 12 (ite $x753 11 (ite $x424 10 ?x714)))))
 (let ((?x1148 (+ ?x728 ?x3102)))
 (let ((?x1678 (- ?x1148 1)))
 (let ((?x2860 (+ (mod ?x1678 12) 1)))
 (let ((?x3432 (ite (or (= ?x2860 4) (= ?x2860 6) (= ?x2860 9) (= ?x2860 11)) 30 31)))
 (let (($x2403 (and (= (mod (+ ?x498 (+ 0 (div ?x1678 12))) 4) 0) (and (distinct (mod (+ ?x498 (+ 0 (div ?x1678 12))) 100) 0) true))))
 (let (($x3365 (or $x2403 (= (mod (+ ?x498 (+ 0 (div ?x1678 12))) 400) 0))))
 (let ((?x1921 (ite (= ?x2860 2) (ite $x3365 29 28) ?x3432)))
 (let (($x1350 (> 1 ?x2064)))
 (let ((?x2625 (ite $x1350 1 (ite (> ?x2064 ?x1921) ?x1921 ?x2064))))
 (let ((?x3295 (ite (> 1 ?x2625) 1 (ite (> ?x2625 ?x1921) ?x1921 ?x2625))))
 (let ((?x1473 (ite (= 2 ?x2860) (ite $x3365 31 31) (ite (= 1 ?x2860) (ite $x3365 0 0) 0))))
 (let ((?x3157 (ite (= 4 ?x2860) (ite $x3365 91 90) (ite (= 3 ?x2860) (ite $x3365 60 59) ?x1473))))
 (let ((?x1415 (ite (= 6 ?x2860) (ite $x3365 152 151) (ite (= 5 ?x2860) (ite $x3365 121 120) ?x3157))))
 (let ((?x1418 (ite (= 8 ?x2860) (ite $x3365 213 212) (ite (= 7 ?x2860) (ite $x3365 182 181) ?x1415))))
 (let ((?x2641 (ite (= 10 ?x2860) (ite $x3365 274 273) (ite (= 9 ?x2860) (ite $x3365 244 243) ?x1418))))
 (let ((?x2427 (ite (= 12 ?x2860) (ite $x3365 335 334) (ite (= 11 ?x2860) (ite $x3365 305 304) ?x2641))))
 (let ((?x2312 (+ (* 365 (- (+ ?x498 (+ 0 (div ?x1678 12))) 1)) (div (- (+ ?x498 (+ 0 (div ?x1678 12))) 1) 4))))
 (let ((?x2684 (+ (- ?x2312 (div (- (+ ?x498 (+ 0 (div ?x1678 12))) 1) 100)) (div (- (+ ?x498 (+ 0 (div ?x1678 12))) 1) 400))))
 (let ((?x1940 (+ (+ (- (+ (+ ?x2684 ?x2427) (- ?x3295 1)) ?x97) 0) ?x97)))
 (let ((?x1465 (mod ?x1940 146097)))
 (let ((?x2827 (div ?x1465 36524)))
 (let ((?x3540 (ite (<= 4 ?x2827) 3 ?x2827)))
 (let ((?x529 (- ?x1465 (* ?x3540 36524))))
 (let ((?x3045 (mod ?x529 1461)))
 (let ((?x917 (div ?x3045 365)))
 (let ((?x2819 (ite (<= 4 ?x917) 3 ?x917)))
 (let ((?x2519 (+ (+ (* (div ?x1940 146097) 400) (* ?x3540 100)) (* (div ?x529 1461) 4))))
 (let ((?x2020 (+ (+ ?x2519 ?x2819) 1)))
 (let (($x1765 (or (and (= (mod ?x2020 4) 0) (and (distinct (mod ?x2020 100) 0) true)) (= (mod ?x2020 400) 0))))
 (let ((?x742 (ite $x1765 31 31)))
 (let ((?x2380 (- ?x3045 (* ?x2819 365))))
 (let (($x626 (>= ?x2380 ?x742)))
 (let ((?x3428 (ite $x1765 60 59)))
 (let (($x2776 (>= ?x2380 ?x3428)))
 (let ((?x2489 (ite $x1765 91 90)))
 (let (($x2530 (>= ?x2380 ?x2489)))
 (let ((?x368 (ite $x1765 121 120)))
 (let (($x1541 (>= ?x2380 ?x368)))
 (let ((?x1050 (ite $x1541 5 (ite $x2530 4 (ite $x2776 3 (ite $x626 2 1))))))
 (let ((?x3137 (ite $x1765 152 151)))
 (let (($x1796 (>= ?x2380 ?x3137)))
 (let ((?x1384 (ite $x1765 182 181)))
 (let (($x2727 (>= ?x2380 ?x1384)))
 (let ((?x843 (ite $x1765 213 212)))
 (let (($x2216 (>= ?x2380 ?x843)))
 (let ((?x2956 (ite $x1765 244 243)))
 (let (($x3447 (>= ?x2380 ?x2956)))
 (let ((?x2554 (ite $x3447 9 (ite $x2216 8 (ite $x2727 7 (ite $x1796 6 ?x1050))))))
 (let ((?x2015 (ite $x1765 274 273)))
 (let (($x1571 (>= ?x2380 ?x2015)))
 (let ((?x2227 (ite $x1765 305 304)))
 (let (($x1748 (>= ?x2380 ?x2227)))
 (let ((?x333 (ite $x1765 335 334)))
 (let (($x1472 (>= ?x2380 ?x333)))
 (let (($x516 (= 0 0)))
 (let ((?x1960 (ite $x516 ?x2860 (ite $x1472 12 (ite $x1748 11 (ite $x1571 10 ?x2554))))))
 (= x_plus_month ?x1960)))))))))))))))))))))))))))))))))))))))))))))))))))))))))))))))))))))))))))))))))))))))))))))))))))))))))))))))))))))
(assert
 (let (($x29 (or (and (= (mod 2000 4) 0) (and (distinct (mod 2000 100) 0) true)) (= (mod 2000 400) 0))))
 (let ((?x36 (ite (= 3 2) (ite $x29 31 31) (ite (= 3 1) (ite $x29 0 0) 0))))
 (let ((?x40 (ite $x29 60 59)))
 (let ((?x41 (ite (= 3 3) ?x40 ?x36)))
 (let ((?x46 (ite (= 3 4) (ite $x29 91 90) ?x41)))
 (let ((?x52 (ite (= 3 5) (ite $x29 121 120) ?x46)))
 (let ((?x58 (ite (= 3 6) (ite $x29 152 151) ?x52)))
 (let ((?x64 (ite (= 3 7) (ite $x29 182 181) ?x58)))
 (let ((?x70 (ite (= 3 8) (ite $x29 213 212) ?x64)))
 (let ((?x76 (ite (= 3 9) (ite $x29 244 243) ?x70)))
 (let ((?x82 (ite (= 3 10) (ite $x29 274 273) ?x76)))
 (let ((?x88 (ite (= 3 11) (ite $x29 305 304) ?x82)))
 (let ((?x16 (- (+ (* 365 (- 2000 1)) (div (- 2000 1) 4)) (div (- 2000 1) 100))))
 (let ((?x95 (+ (+ ?x16 (div (- 2000 1) 400)) (ite (= 3 12) (ite $x29 335 334) ?x88))))
 (let ((?x97 (+ ?x95 (- 1 1))))
 (let ((?x357 (+ x_epoch ?x97)))
 (let ((?x1747 (mod ?x357 146097)))
 (let ((?x555 (div ?x1747 36524)))
 (let ((?x3001 (ite (<= 4 ?x555) 3 ?x555)))
 (let ((?x2745 (- ?x1747 (* ?x3001 36524))))
 (let ((?x328 (mod ?x2745 1461)))
 (let ((?x606 (div ?x328 365)))
 (let ((?x2600 (ite (<= 4 ?x606) 3 ?x606)))
 (let ((?x616 (+ (+ (* (div ?x357 146097) 400) (* ?x3001 100)) (* (div ?x2745 1461) 4))))
 (let ((?x498 (+ (+ ?x616 ?x2600) 1)))
 (let (($x2468 (or (and (= (mod ?x498 4) 0) (and (distinct (mod ?x498 100) 0) true)) (= (mod ?x498 400) 0))))
 (let ((?x178 (- ?x328 (* ?x2600 365))))
 (let ((?x2937 (ite $x2468 31 31)))
 (let (($x138 (>= ?x178 ?x2937)))
 (let ((?x506 (ite $x138 (+ (- ?x178 ?x2937) 1) (+ (- ?x178 (ite $x2468 0 0)) 1))))
 (let ((?x649 (ite $x2468 60 59)))
 (let (($x2894 (>= ?x178 ?x649)))
 (let ((?x799 (ite $x2468 91 90)))
 (let (($x488 (>= ?x178 ?x799)))
 (let ((?x466 (ite $x488 (+ (- ?x178 ?x799) 1) (ite $x2894 (+ (- ?x178 ?x649) 1) ?x506))))
 (let ((?x563 (ite $x2468 121 120)))
 (let (($x143 (>= ?x178 ?x563)))
 (let ((?x2146 (ite $x2468 152 151)))
 (let (($x363 (>= ?x178 ?x2146)))
 (let ((?x292 (ite $x363 (+ (- ?x178 ?x2146) 1) (ite $x143 (+ (- ?x178 ?x563) 1) ?x466))))
 (let ((?x360 (ite $x2468 182 181)))
 (let (($x351 (>= ?x178 ?x360)))
 (let ((?x240 (ite $x2468 213 212)))
 (let (($x439 (>= ?x178 ?x240)))
 (let ((?x538 (ite $x439 (+ (- ?x178 ?x240) 1) (ite $x351 (+ (- ?x178 ?x360) 1) ?x292))))
 (let ((?x3103 (ite $x2468 244 243)))
 (let (($x485 (>= ?x178 ?x3103)))
 (let ((?x2444 (ite $x2468 274 273)))
 (let (($x424 (>= ?x178 ?x2444)))
 (let ((?x499 (ite $x424 (+ (- ?x178 ?x2444) 1) (ite $x485 (+ (- ?x178 ?x3103) 1) ?x538))))
 (let ((?x181 (ite $x2468 305 304)))
 (let (($x753 (>= ?x178 ?x181)))
 (let ((?x830 (ite $x2468 335 334)))
 (let (($x402 (>= ?x178 ?x830)))
 (let ((?x2064 (ite $x402 (+ (- ?x178 ?x830) 1) (ite $x753 (+ (- ?x178 ?x181) 1) ?x499))))
 (let ((?x3102 (+ (* 1 12) 0)))
 (let ((?x790 (ite $x143 5 (ite $x488 4 (ite $x2894 3 (ite $x138 2 1))))))
 (let ((?x714 (ite $x485 9 (ite $x439 8 (ite $x351 7 (ite $x363 6 ?x790))))))
 (let ((?x728 (ite $x402 12 (ite $x753 11 (ite $x424 10 ?x714)))))
 (let ((?x1148 (+ ?x728 ?x3102)))
 (let ((?x1678 (- ?x1148 1)))
 (let ((?x2860 (+ (mod ?x1678 12) 1)))
 (let ((?x3432 (ite (or (= ?x2860 4) (= ?x2860 6) (= ?x2860 9) (= ?x2860 11)) 30 31)))
 (let (($x2403 (and (= (mod (+ ?x498 (+ 0 (div ?x1678 12))) 4) 0) (and (distinct (mod (+ ?x498 (+ 0 (div ?x1678 12))) 100) 0) true))))
 (let (($x3365 (or $x2403 (= (mod (+ ?x498 (+ 0 (div ?x1678 12))) 400) 0))))
 (let ((?x1921 (ite (= ?x2860 2) (ite $x3365 29 28) ?x3432)))
 (let (($x1350 (> 1 ?x2064)))
 (let ((?x2625 (ite $x1350 1 (ite (> ?x2064 ?x1921) ?x1921 ?x2064))))
 (let ((?x3295 (ite (> 1 ?x2625) 1 (ite (> ?x2625 ?x1921) ?x1921 ?x2625))))
 (let ((?x1473 (ite (= 2 ?x2860) (ite $x3365 31 31) (ite (= 1 ?x2860) (ite $x3365 0 0) 0))))
 (let ((?x3157 (ite (= 4 ?x2860) (ite $x3365 91 90) (ite (= 3 ?x2860) (ite $x3365 60 59) ?x1473))))
 (let ((?x1415 (ite (= 6 ?x2860) (ite $x3365 152 151) (ite (= 5 ?x2860) (ite $x3365 121 120) ?x3157))))
 (let ((?x1418 (ite (= 8 ?x2860) (ite $x3365 213 212) (ite (= 7 ?x2860) (ite $x3365 182 181) ?x1415))))
 (let ((?x2641 (ite (= 10 ?x2860) (ite $x3365 274 273) (ite (= 9 ?x2860) (ite $x3365 244 243) ?x1418))))
 (let ((?x2427 (ite (= 12 ?x2860) (ite $x3365 335 334) (ite (= 11 ?x2860) (ite $x3365 305 304) ?x2641))))
 (let ((?x2312 (+ (* 365 (- (+ ?x498 (+ 0 (div ?x1678 12))) 1)) (div (- (+ ?x498 (+ 0 (div ?x1678 12))) 1) 4))))
 (let ((?x2684 (+ (- ?x2312 (div (- (+ ?x498 (+ 0 (div ?x1678 12))) 1) 100)) (div (- (+ ?x498 (+ 0 (div ?x1678 12))) 1) 400))))
 (let ((?x1940 (+ (+ (- (+ (+ ?x2684 ?x2427) (- ?x3295 1)) ?x97) 0) ?x97)))
 (let ((?x1465 (mod ?x1940 146097)))
 (let ((?x2827 (div ?x1465 36524)))
 (let ((?x3540 (ite (<= 4 ?x2827) 3 ?x2827)))
 (let ((?x529 (- ?x1465 (* ?x3540 36524))))
 (let ((?x3045 (mod ?x529 1461)))
 (let ((?x917 (div ?x3045 365)))
 (let ((?x2819 (ite (<= 4 ?x917) 3 ?x917)))
 (let ((?x2519 (+ (+ (* (div ?x1940 146097) 400) (* ?x3540 100)) (* (div ?x529 1461) 4))))
 (let ((?x2020 (+ (+ ?x2519 ?x2819) 1)))
 (let (($x1765 (or (and (= (mod ?x2020 4) 0) (and (distinct (mod ?x2020 100) 0) true)) (= (mod ?x2020 400) 0))))
 (let ((?x2380 (- ?x3045 (* ?x2819 365))))
 (let ((?x742 (ite $x1765 31 31)))
 (let (($x626 (>= ?x2380 ?x742)))
 (let ((?x1594 (ite $x626 (+ (- ?x2380 ?x742) 1) (+ (- ?x2380 (ite $x1765 0 0)) 1))))
 (let ((?x3428 (ite $x1765 60 59)))
 (let (($x2776 (>= ?x2380 ?x3428)))
 (let ((?x2489 (ite $x1765 91 90)))
 (let (($x2530 (>= ?x2380 ?x2489)))
 (let ((?x2247 (ite $x2530 (+ (- ?x2380 ?x2489) 1) (ite $x2776 (+ (- ?x2380 ?x3428) 1) ?x1594))))
 (let ((?x368 (ite $x1765 121 120)))
 (let (($x1541 (>= ?x2380 ?x368)))
 (let ((?x3137 (ite $x1765 152 151)))
 (let (($x1796 (>= ?x2380 ?x3137)))
 (let ((?x1823 (ite $x1796 (+ (- ?x2380 ?x3137) 1) (ite $x1541 (+ (- ?x2380 ?x368) 1) ?x2247))))
 (let ((?x1384 (ite $x1765 182 181)))
 (let (($x2727 (>= ?x2380 ?x1384)))
 (let ((?x843 (ite $x1765 213 212)))
 (let (($x2216 (>= ?x2380 ?x843)))
 (let ((?x2014 (ite $x2216 (+ (- ?x2380 ?x843) 1) (ite $x2727 (+ (- ?x2380 ?x1384) 1) ?x1823))))
 (let ((?x2956 (ite $x1765 244 243)))
 (let (($x3447 (>= ?x2380 ?x2956)))
 (let ((?x2015 (ite $x1765 274 273)))
 (let (($x1571 (>= ?x2380 ?x2015)))
 (let ((?x1673 (ite $x1571 (+ (- ?x2380 ?x2015) 1) (ite $x3447 (+ (- ?x2380 ?x2956) 1) ?x2014))))
 (let ((?x2227 (ite $x1765 305 304)))
 (let (($x1748 (>= ?x2380 ?x2227)))
 (let ((?x333 (ite $x1765 335 334)))
 (let (($x1472 (>= ?x2380 ?x333)))
 (let ((?x3484 (ite $x1472 (+ (- ?x2380 ?x333) 1) (ite $x1748 (+ (- ?x2380 ?x2227) 1) ?x1673))))
 (let (($x516 (= 0 0)))
 (let ((?x1275 (ite $x516 ?x3295 ?x3484)))
 (= x_plus_day ?x1275)))))))))))))))))))))))))))))))))))))))))))))))))))))))))))))))))))))))))))))))))))))))))))))))))))))))))))))))))))))))))
(assert
 (= y_epoch x_plus_epoch))
(assert
 (>= x_plus_1_epoch (- 36584)))
(assert
 (<= x_plus_1_epoch 36829))
(assert
 (= x_plus_1_epoch (+ x_epoch 365)))
(assert
 (not (= y_epoch x_plus_1_epoch)))
(check-sat)
